(set-option :produce-models true)
(set-logic QF_UF)
(declare-fun p13() Bool)
(declare-fun p14() Bool)
(declare-fun p21() Bool)
(declare-fun p10() Bool)
(declare-fun p24() Bool)
(declare-fun p38() Bool)
(declare-fun p39() Bool)
(declare-fun p15() Bool)
(declare-fun p12() Bool)
(declare-fun p23() Bool)
(declare-fun p32() Bool)
(declare-fun p1() Bool)
(declare-fun p25() Bool)
(declare-fun p27() Bool)
(declare-fun p11() Bool)
(declare-fun p20() Bool)
(declare-fun p5() Bool)
(declare-fun p3() Bool)
(declare-fun p34() Bool)
(declare-fun p30() Bool)
(declare-fun p0() Bool)
(declare-fun p16() Bool)
(declare-fun p37() Bool)
(declare-fun p35() Bool)
(declare-fun p6() Bool)
(declare-fun p7() Bool)
(declare-fun p8() Bool)
(declare-fun p36() Bool)
(declare-fun p18() Bool)
(declare-fun p22() Bool)
(declare-fun p2() Bool)
(declare-fun p33() Bool)
(declare-fun p26() Bool)
(declare-fun p29() Bool)
(declare-fun p19() Bool)
(declare-fun p17() Bool)
(declare-fun p9() Bool)
(declare-fun p4() Bool)
(declare-fun p28() Bool)
(declare-fun p31() Bool)
(assert
(and (or p13 (not p14) p21) (or p10 (not p24) (not p38)) (or p39 (not p15) (not p12)) (or p23 (not p32) p1) (or p25 p27 p24) (or p10 p14 p25) (or (not p10) p11 (not p20)) (or (not p5) p3 p34) (or p15 p5 p30) (or (not p0) (not p16) p37) (or (not p10) (not p35) (not p6)) (or (not p15) (not p20) (not p7)) (or (not p11) (not p8) (not p21)) (or (not p36) (not p35) (not p24)) (or p8 (not p18) p7) (or p15 p34 p22) (or (not p20) p35 p14) (or (not p16) p21 p2) (or (not p6) (not p6) (not p18)) (or p3 p20 p30) (or (not p36) p33 p7) (or (not p22) p6 p30) (or p26 (not p18) p21) (or p36 p24 p15) (or (not p29) (not p19) (not p18)) (or (not p17) p30 p24) (or p13 (not p39) (not p29)) (or p25 (not p1) p22) (or (not p22) (not p22) p23) (or (not p26) (not p15) p38) (or (not p8) (not p11) p20) (or (not p32) p12 p12) (or p12 (not p17) (not p21)) (or p32 p7 p30) (or (not p6) (not p19) p34) (or (not p25) p38 (not p1)) (or p12 (not p32) (not p32)) (or (not p19) p9 (not p24)) (or (not p5) p4 (not p15)) (or p6 (not p20) p18) (or p6 (not p28) p4) (or p6 (not p33) p1) (or p14 (not p3) p32) (or (not p18) p39 (not p21)) (or (not p14) (not p4) (not p30)) (or p0 (not p11) (not p20)) (or p13 p22 (not p16)) (or p29 p12 (not p5)) (or p35 (not p28) p35) (or (not p37) (not p31) p30) (or p34 p12 (not p15)) (or p9 (not p28) p6) (or p10 p3 (not p26)) (or p7 (not p34) p21) (or (not p30) p6 p38) (or p20 (not p21) (not p22)) (or (not p19) p20 p4) (or p11 p4 (not p5)) (or p10 p16 (not p19)) (or (not p26) (not p29) (not p5)) (or (not p34) (not p3) p11) (or (not p10) p17 (not p0)) (or p17 (not p26) p39) (or p14 (not p15) (not p11)) (or p18 p24 (not p23)) (or (not p14) p22 p24) (or p22 p17 (not p5)) (or p14 p37 p28) (or p19 p16 (not p4)) (or (not p30) (not p26) p3) (or p16 p18 (not p37)) (or p16 (not p25) p34) (or p12 p38 (not p17)) (or p31 (not p14) p34) (or p35 (not p13) (not p23)) (or p28 p8 (not p16)) (or p3 (not p16) (not p35)) (or p7 (not p27) (not p23)) (or (not p33) p23 (not p36)) (or p23 (not p28) (not p31)) (or (not p0) p23 p7) (or p24 p39 (not p18)) (or p5 (not p1) p7) (or (not p1) p13 p14) (or (not p8) p23 p14) (or p14 p3 p23) (or p16 (not p22) p1) (or (not p27) (not p28) p2) (or (not p23) (not p29) p35) (or (not p7) (not p3) (not p6)) (or (not p20) p17 p2) (or (not p8) p21 (not p31)) (or p31 p23 (not p39)) (or (not p5) p10 (not p39)) (or (not p31) p20 p36) (or p7 (not p32) (not p2)) (or (not p37) (not p29) p21) (or p33 (not p34) p1) (or p3 (not p4) (not p25)) (or (not p35) p34 (not p5)) (or (not p25) (not p30) p8) (or p6 p21 p22) (or p8 p18 p37) (or p39 p13 p38) (or (not p13) p30 (not p1)) (or (not p24) p19 (not p22)) (or p3 p4 (not p15)) (or (not p1) p2 (not p37)) (or p6 (not p35) (not p15)) (or (not p16) (not p24) p21) (or p0 p17 (not p1)) (or p25 (not p7) (not p31)) (or (not p39) p7 p14) (or p14 p9 (not p26)) (or p2 p34 p23) (or (not p22) (not p34) p19) (or p13 p16 (not p17)) (or p2 p19 (not p7)) (or (not p4) (not p29) p4) (or p22 (not p33) (not p24)) (or p4 (not p3) (not p35)) (or (not p23) p0 (not p39)) (or (not p9) (not p5) p16) (or p23 p4 (not p33)) (or (not p8) p15 p25) (or (not p38) (not p39) p39) (or (not p14) (not p36) (not p14)) (or p23 (not p0) (not p15)) (or p15 p22 (not p11)) (or p28 p30 (not p36)) (or (not p16) p10 (not p11)) (or p28 p34 (not p1)) (or p35 (not p16) (not p24)) (or (not p32) (not p30) p6) (or p32 (not p23) p1) (or (not p32) (not p37) (not p26)) (or p37 p32 (not p33)) (or (not p27) p35 p31) (or (not p19) p19 p26) (or (not p29) p1 (not p39)) (or (not p36) p0 p21) (or (not p37) p23 (not p2)) (or (not p30) (not p23) (not p24)) (or p32 p33 p11) (or (not p20) p24 (not p27)) (or p17 p18 p20) (or p31 (not p28) (not p34)) (or (not p13) (not p23) (not p16)) (or (not p3) p25 p22) (or (not p37) p15 (not p9)) (or (not p23) p7 p17) (or p32 p23 (not p29)) (or (not p22) (not p17) (not p2)) (or (not p9) p38 (not p3)) (or p27 p23 (not p32)) (or p27 (not p14) (not p22)) (or p26 (not p23) (not p11)) (or (not p34) p10 (not p37)) (or (not p27) p7 p35) (or (not p0) (not p38) p37) (or (not p38) p15 (not p14)) (or p3 (not p22) (not p6)) (or (not p26) (not p38) p14) (or (not p29) p8 p3) (or p12 (not p24) p1) (or (not p23) p9 (not p21)) (or p20 (not p6) (not p15)) (or (not p22) (not p37) (not p18)) (or p24 p0 (not p36)) (or (not p14) p26 p25) (or p31 (not p8) p30))
)
(check-sat)
(get-model)
